p cnf 342 794
1 4 6 7 10 12 13 16 17 0
19 20 27 29 30 31 0
37 38 39 44 48 49 51 0
55 57 58 59 61 62 65 67 69 71 0
73 77 80 81 83 87 88 89 90 0
91 92 94 96 98 99 103 108 0
109 110 111 112 115 118 122 123 125 126 0
127 128 129 131 133 134 137 139 140 0
145 146 147 148 150 151 153 154 160 0
163 164 165 169 170 171 172 176 177 178 179 0
182 183 186 187 188 190 191 193 194 197 0
199 200 201 202 205 207 209 210 211 213 0
221 222 225 229 230 234 0
240 241 244 246 247 248 249 0
253 254 255 258 260 261 262 264 265 267 268 0
271 272 273 274 277 278 280 282 283 284 286 0
291 293 294 297 298 300 301 302 305 306 0
308 313 314 315 318 320 322 323 324 0
326 327 330 331 334 335 338 340 342 0
-1 -19 0
-1 -37 0
-1 -55 0
-1 -73 0
-1 -91 0
-1 -109 0
-1 -127 0
-1 -145 0
-1 -163 0
-1 -199 0
-1 -253 0
-1 -271 0
-19 -37 0
-19 -55 0
-19 -73 0
-19 -91 0
-19 -109 0
-19 -127 0
-19 -145 0
-19 -163 0
-19 -199 0
-19 -253 0
-19 -271 0
-37 -55 0
-37 -73 0
-37 -91 0
-37 -109 0
-37 -127 0
-37 -145 0
-37 -163 0
-37 -199 0
-37 -253 0
-37 -271 0
-55 -73 0
-55 -91 0
-55 -109 0
-55 -127 0
-55 -145 0
-55 -163 0
-55 -199 0
-55 -253 0
-55 -271 0
-73 -91 0
-73 -109 0
-73 -127 0
-73 -145 0
-73 -163 0
-73 -199 0
-73 -253 0
-73 -271 0
-91 -109 0
-91 -127 0
-91 -145 0
-91 -163 0
-91 -199 0
-91 -253 0
-91 -271 0
-109 -127 0
-109 -145 0
-109 -163 0
-109 -199 0
-109 -253 0
-109 -271 0
-127 -145 0
-127 -163 0
-127 -199 0
-127 -253 0
-127 -271 0
-145 -163 0
-145 -199 0
-145 -253 0
-145 -271 0
-163 -199 0
-163 -253 0
-163 -271 0
-199 -253 0
-199 -271 0
-253 -271 0
-20 -38 0
-20 -92 0
-20 -110 0
-20 -128 0
-20 -146 0
-20 -164 0
-20 -182 0
-20 -200 0
-20 -254 0
-20 -272 0
-20 -308 0
-20 -326 0
-38 -92 0
-38 -110 0
-38 -128 0
-38 -146 0
-38 -164 0
-38 -182 0
-38 -200 0
-38 -254 0
-38 -272 0
-38 -308 0
-38 -326 0
-92 -110 0
-92 -128 0
-92 -146 0
-92 -164 0
-92 -182 0
-92 -200 0
-92 -254 0
-92 -272 0
-92 -308 0
-92 -326 0
-110 -128 0
-110 -146 0
-110 -164 0
-110 -182 0
-110 -200 0
-110 -254 0
-110 -272 0
-110 -308 0
-110 -326 0
-128 -146 0
-128 -164 0
-128 -182 0
-128 -200 0
-128 -254 0
-128 -272 0
-128 -308 0
-128 -326 0
-146 -164 0
-146 -182 0
-146 -200 0
-146 -254 0
-146 -272 0
-146 -308 0
-146 -326 0
-164 -182 0
-164 -200 0
-164 -254 0
-164 -272 0
-164 -308 0
-164 -326 0
-182 -200 0
-182 -254 0
-182 -272 0
-182 -308 0
-182 -326 0
-200 -254 0
-200 -272 0
-200 -308 0
-200 -326 0
-254 -272 0
-254 -308 0
-254 -326 0
-272 -308 0
-272 -326 0
-308 -326 0
-39 -57 0
-39 -111 0
-39 -129 0
-39 -147 0
-39 -165 0
-39 -183 0
-39 -201 0
-39 -255 0
-39 -273 0
-39 -291 0
-39 -327 0
-57 -111 0
-57 -129 0
-57 -147 0
-57 -165 0
-57 -183 0
-57 -201 0
-57 -255 0
-57 -273 0
-57 -291 0
-57 -327 0
-111 -129 0
-111 -147 0
-111 -165 0
-111 -183 0
-111 -201 0
-111 -255 0
-111 -273 0
-111 -291 0
-111 -327 0
-129 -147 0
-129 -165 0
-129 -183 0
-129 -201 0
-129 -255 0
-129 -273 0
-129 -291 0
-129 -327 0
-147 -165 0
-147 -183 0
-147 -201 0
-147 -255 0
-147 -273 0
-147 -291 0
-147 -327 0
-165 -183 0
-165 -201 0
-165 -255 0
-165 -273 0
-165 -291 0
-165 -327 0
-183 -201 0
-183 -255 0
-183 -273 0
-183 -291 0
-183 -327 0
-201 -255 0
-201 -273 0
-201 -291 0
-201 -327 0
-255 -273 0
-255 -291 0
-255 -327 0
-273 -291 0
-273 -327 0
-291 -327 0
-4 -58 0
-4 -94 0
-4 -112 0
-4 -148 0
-4 -202 0
-4 -274 0
-58 -94 0
-58 -112 0
-58 -148 0
-58 -202 0
-58 -274 0
-94 -112 0
-94 -148 0
-94 -202 0
-94 -274 0
-112 -148 0
-112 -202 0
-112 -274 0
-148 -202 0
-148 -274 0
-202 -274 0
-59 -77 0
-59 -131 0
-59 -221 0
-59 -293 0
-77 -131 0
-77 -221 0
-77 -293 0
-131 -221 0
-131 -293 0
-221 -293 0
-6 -96 0
-6 -150 0
-6 -186 0
-6 -222 0
-6 -240 0
-6 -258 0
-6 -294 0
-6 -330 0
-96 -150 0
-96 -186 0
-96 -222 0
-96 -240 0
-96 -258 0
-96 -294 0
-96 -330 0
-150 -186 0
-150 -222 0
-150 -240 0
-150 -258 0
-150 -294 0
-150 -330 0
-186 -222 0
-186 -240 0
-186 -258 0
-186 -294 0
-186 -330 0
-222 -240 0
-222 -258 0
-222 -294 0
-222 -330 0
-240 -258 0
-240 -294 0
-240 -330 0
-258 -294 0
-258 -330 0
-294 -330 0
-7 -61 0
-7 -115 0
-7 -133 0
-7 -151 0
-7 -169 0
-7 -187 0
-7 -205 0
-7 -241 0
-7 -277 0
-7 -313 0
-7 -331 0
-61 -115 0
-61 -133 0
-61 -151 0
-61 -169 0
-61 -187 0
-61 -205 0
-61 -241 0
-61 -277 0
-61 -313 0
-61 -331 0
-115 -133 0
-115 -151 0
-115 -169 0
-115 -187 0
-115 -205 0
-115 -241 0
-115 -277 0
-115 -313 0
-115 -331 0
-133 -151 0
-133 -169 0
-133 -187 0
-133 -205 0
-133 -241 0
-133 -277 0
-133 -313 0
-133 -331 0
-151 -169 0
-151 -187 0
-151 -205 0
-151 -241 0
-151 -277 0
-151 -313 0
-151 -331 0
-169 -187 0
-169 -205 0
-169 -241 0
-169 -277 0
-169 -313 0
-169 -331 0
-187 -205 0
-187 -241 0
-187 -277 0
-187 -313 0
-187 -331 0
-205 -241 0
-205 -277 0
-205 -313 0
-205 -331 0
-241 -277 0
-241 -313 0
-241 -331 0
-277 -313 0
-277 -331 0
-313 -331 0
-44 -62 0
-44 -80 0
-44 -98 0
-44 -134 0
-44 -170 0
-44 -188 0
-44 -260 0
-44 -278 0
-44 -314 0
-62 -80 0
-62 -98 0
-62 -134 0
-62 -170 0
-62 -188 0
-62 -260 0
-62 -278 0
-62 -314 0
-80 -98 0
-80 -134 0
-80 -170 0
-80 -188 0
-80 -260 0
-80 -278 0
-80 -314 0
-98 -134 0
-98 -170 0
-98 -188 0
-98 -260 0
-98 -278 0
-98 -314 0
-134 -170 0
-134 -188 0
-134 -260 0
-134 -278 0
-134 -314 0
-170 -188 0
-170 -260 0
-170 -278 0
-170 -314 0
-188 -260 0
-188 -278 0
-188 -314 0
-260 -278 0
-260 -314 0
-278 -314 0
-27 -81 0
-27 -99 0
-27 -153 0
-27 -171 0
-27 -207 0
-27 -225 0
-27 -261 0
-27 -297 0
-27 -315 0
-81 -99 0
-81 -153 0
-81 -171 0
-81 -207 0
-81 -225 0
-81 -261 0
-81 -297 0
-81 -315 0
-99 -153 0
-99 -171 0
-99 -207 0
-99 -225 0
-99 -261 0
-99 -297 0
-99 -315 0
-153 -171 0
-153 -207 0
-153 -225 0
-153 -261 0
-153 -297 0
-153 -315 0
-171 -207 0
-171 -225 0
-171 -261 0
-171 -297 0
-171 -315 0
-207 -225 0
-207 -261 0
-207 -297 0
-207 -315 0
-225 -261 0
-225 -297 0
-225 -315 0
-261 -297 0
-261 -315 0
-297 -315 0
-10 -118 0
-10 -154 0
-10 -172 0
-10 -190 0
-10 -244 0
-10 -262 0
-10 -280 0
-10 -298 0
-10 -334 0
-118 -154 0
-118 -172 0
-118 -190 0
-118 -244 0
-118 -262 0
-118 -280 0
-118 -298 0
-118 -334 0
-154 -172 0
-154 -190 0
-154 -244 0
-154 -262 0
-154 -280 0
-154 -298 0
-154 -334 0
-172 -190 0
-172 -244 0
-172 -262 0
-172 -280 0
-172 -298 0
-172 -334 0
-190 -244 0
-190 -262 0
-190 -280 0
-190 -298 0
-190 -334 0
-244 -262 0
-244 -280 0
-244 -298 0
-244 -334 0
-262 -280 0
-262 -298 0
-262 -334 0
-280 -298 0
-280 -334 0
-298 -334 0
-29 -65 0
-29 -83 0
-29 -137 0
-29 -191 0
-29 -209 0
-29 -335 0
-65 -83 0
-65 -137 0
-65 -191 0
-65 -209 0
-65 -335 0
-83 -137 0
-83 -191 0
-83 -209 0
-83 -335 0
-137 -191 0
-137 -209 0
-137 -335 0
-191 -209 0
-191 -335 0
-209 -335 0
-12 -30 0
-12 -48 0
-12 -210 0
-12 -246 0
-12 -264 0
-12 -282 0
-12 -300 0
-12 -318 0
-30 -48 0
-30 -210 0
-30 -246 0
-30 -264 0
-30 -282 0
-30 -300 0
-30 -318 0
-48 -210 0
-48 -246 0
-48 -264 0
-48 -282 0
-48 -300 0
-48 -318 0
-210 -246 0
-210 -264 0
-210 -282 0
-210 -300 0
-210 -318 0
-246 -264 0
-246 -282 0
-246 -300 0
-246 -318 0
-264 -282 0
-264 -300 0
-264 -318 0
-282 -300 0
-282 -318 0
-300 -318 0
-13 -31 0
-13 -49 0
-13 -67 0
-13 -103 0
-13 -139 0
-13 -193 0
-13 -211 0
-13 -229 0
-13 -247 0
-13 -265 0
-13 -283 0
-13 -301 0
-31 -49 0
-31 -67 0
-31 -103 0
-31 -139 0
-31 -193 0
-31 -211 0
-31 -229 0
-31 -247 0
-31 -265 0
-31 -283 0
-31 -301 0
-49 -67 0
-49 -103 0
-49 -139 0
-49 -193 0
-49 -211 0
-49 -229 0
-49 -247 0
-49 -265 0
-49 -283 0
-49 -301 0
-67 -103 0
-67 -139 0
-67 -193 0
-67 -211 0
-67 -229 0
-67 -247 0
-67 -265 0
-67 -283 0
-67 -301 0
-103 -139 0
-103 -193 0
-103 -211 0
-103 -229 0
-103 -247 0
-103 -265 0
-103 -283 0
-103 -301 0
-139 -193 0
-139 -211 0
-139 -229 0
-139 -247 0
-139 -265 0
-139 -283 0
-139 -301 0
-193 -211 0
-193 -229 0
-193 -247 0
-193 -265 0
-193 -283 0
-193 -301 0
-211 -229 0
-211 -247 0
-211 -265 0
-211 -283 0
-211 -301 0
-229 -247 0
-229 -265 0
-229 -283 0
-229 -301 0
-247 -265 0
-247 -283 0
-247 -301 0
-265 -283 0
-265 -301 0
-283 -301 0
-122 -140 0
-122 -176 0
-122 -194 0
-122 -230 0
-122 -248 0
-122 -284 0
-122 -302 0
-122 -320 0
-122 -338 0
-140 -176 0
-140 -194 0
-140 -230 0
-140 -248 0
-140 -284 0
-140 -302 0
-140 -320 0
-140 -338 0
-176 -194 0
-176 -230 0
-176 -248 0
-176 -284 0
-176 -302 0
-176 -320 0
-176 -338 0
-194 -230 0
-194 -248 0
-194 -284 0
-194 -302 0
-194 -320 0
-194 -338 0
-230 -248 0
-230 -284 0
-230 -302 0
-230 -320 0
-230 -338 0
-248 -284 0
-248 -302 0
-248 -320 0
-248 -338 0
-284 -302 0
-284 -320 0
-284 -338 0
-302 -320 0
-302 -338 0
-320 -338 0
-51 -69 0
-51 -87 0
-51 -123 0
-51 -177 0
-51 -213 0
-51 -249 0
-51 -267 0
-69 -87 0
-69 -123 0
-69 -177 0
-69 -213 0
-69 -249 0
-69 -267 0
-87 -123 0
-87 -177 0
-87 -213 0
-87 -249 0
-87 -267 0
-123 -177 0
-123 -213 0
-123 -249 0
-123 -267 0
-177 -213 0
-177 -249 0
-177 -267 0
-213 -249 0
-213 -267 0
-249 -267 0
-16 -88 0
-16 -160 0
-16 -178 0
-16 -268 0
-16 -286 0
-16 -322 0
-16 -340 0
-88 -160 0
-88 -178 0
-88 -268 0
-88 -286 0
-88 -322 0
-88 -340 0
-160 -178 0
-160 -268 0
-160 -286 0
-160 -322 0
-160 -340 0
-178 -268 0
-178 -286 0
-178 -322 0
-178 -340 0
-268 -286 0
-268 -322 0
-268 -340 0
-286 -322 0
-286 -340 0
-322 -340 0
-17 -71 0
-17 -89 0
-17 -125 0
-17 -179 0
-17 -197 0
-17 -305 0
-17 -323 0
-71 -89 0
-71 -125 0
-71 -179 0
-71 -197 0
-71 -305 0
-71 -323 0
-89 -125 0
-89 -179 0
-89 -197 0
-89 -305 0
-89 -323 0
-125 -179 0
-125 -197 0
-125 -305 0
-125 -323 0
-179 -197 0
-179 -305 0
-179 -323 0
-197 -305 0
-197 -323 0
-305 -323 0
-90 -108 0
-90 -126 0
-90 -234 0
-90 -306 0
-90 -324 0
-90 -342 0
-108 -126 0
-108 -234 0
-108 -306 0
-108 -324 0
-108 -342 0
-126 -234 0
-126 -306 0
-126 -324 0
-126 -342 0
-234 -306 0
-234 -324 0
-234 -342 0
-306 -324 0
-306 -342 0
-324 -342 0
